c nIsolatedPIs 64
c maxPI 192
p cnf 687 1486
c gate 193 94 190 0
94 -193 0
190 -193 0
-94 -190 193 0
c gate 194 93 189 0
93 -194 0
189 -194 0
-93 -189 194 0
c gate 195 -193 -194 0
-193 -195 0
-194 -195 0
193 194 195 0
c gate 196 -93 -189 0
-93 -196 0
-189 -196 0
93 189 196 0
c gate 197 92 188 0
92 -197 0
188 -197 0
-92 -188 197 0
c gate 198 -92 -188 0
-92 -198 0
-188 -198 0
92 188 198 0
c gate 199 91 187 0
91 -199 0
187 -199 0
-91 -187 199 0
c gate 200 -198 199 0
-198 -200 0
199 -200 0
198 -199 200 0
c gate 201 -197 -200 0
-197 -201 0
-200 -201 0
197 200 201 0
c gate 202 90 186 0
90 -202 0
186 -202 0
-90 -186 202 0
c gate 203 89 185 0
89 -203 0
185 -203 0
-89 -185 203 0
c gate 204 -202 -203 0
-202 -204 0
-203 -204 0
202 203 204 0
c gate 205 -90 -186 0
-90 -205 0
-186 -205 0
90 186 205 0
c gate 206 -91 -187 0
-91 -206 0
-187 -206 0
91 187 206 0
c gate 207 -198 -206 0
-198 -207 0
-206 -207 0
198 206 207 0
c gate 208 -205 207 0
-205 -208 0
207 -208 0
205 -207 208 0
c gate 209 201 208 0
201 -209 0
208 -209 0
-201 -208 209 0
c gate 210 -204 209 0
-204 -210 0
209 -210 0
204 -209 210 0
c gate 211 201 -210 0
201 -211 0
-210 -211 0
-201 210 211 0
c gate 212 -88 -184 0
-88 -212 0
-184 -212 0
88 184 212 0
c gate 213 88 184 0
88 -213 0
184 -213 0
-88 -184 213 0
c gate 214 87 183 0
87 -214 0
183 -214 0
-87 -183 214 0
c gate 215 -213 -214 0
-213 -215 0
-214 -215 0
213 214 215 0
c gate 216 -87 -183 0
-87 -216 0
-183 -216 0
87 183 216 0
c gate 217 -86 -182 0
-86 -217 0
-182 -217 0
86 182 217 0
c gate 218 -216 -217 0
-216 -218 0
-217 -218 0
216 217 218 0
c gate 219 86 182 0
86 -219 0
182 -219 0
-86 -182 219 0
c gate 220 85 181 0
85 -220 0
181 -220 0
-85 -181 220 0
c gate 221 -219 -220 0
-219 -221 0
-220 -221 0
219 220 221 0
c gate 222 -85 -181 0
-85 -222 0
-181 -222 0
85 181 222 0
c gate 223 82 178 0
82 -223 0
178 -223 0
-82 -178 223 0
c gate 224 81 177 0
81 -224 0
177 -224 0
-81 -177 224 0
c gate 225 -223 -224 0
-223 -225 0
-224 -225 0
223 224 225 0
c gate 226 -83 -179 0
-83 -226 0
-179 -226 0
83 179 226 0
c gate 227 -82 -178 0
-82 -227 0
-178 -227 0
82 178 227 0
c gate 228 -84 -180 0
-84 -228 0
-180 -228 0
84 180 228 0
c gate 229 -227 -228 0
-227 -229 0
-228 -229 0
227 228 229 0
c gate 230 -226 229 0
-226 -230 0
229 -230 0
226 -229 230 0
c gate 231 -225 230 0
-225 -231 0
230 -231 0
225 -230 231 0
c gate 232 84 180 0
84 -232 0
180 -232 0
-84 -180 232 0
c gate 233 83 179 0
83 -233 0
179 -233 0
-83 -179 233 0
c gate 234 -228 233 0
-228 -234 0
233 -234 0
228 -233 234 0
c gate 235 -232 -234 0
-232 -235 0
-234 -235 0
232 234 235 0
c gate 236 -231 235 0
-231 -236 0
235 -236 0
231 -235 236 0
c gate 237 -222 -236 0
-222 -237 0
-236 -237 0
222 236 237 0
c gate 238 221 -237 0
221 -238 0
-237 -238 0
-221 237 238 0
c gate 239 218 -238 0
218 -239 0
-238 -239 0
-218 238 239 0
c gate 240 215 -239 0
215 -240 0
-239 -240 0
-215 239 240 0
c gate 241 -212 -240 0
-212 -241 0
-240 -241 0
212 240 241 0
c gate 242 73 169 0
73 -242 0
169 -242 0
-73 -169 242 0
c gate 243 74 170 0
74 -243 0
170 -243 0
-74 -170 243 0
c gate 244 -242 -243 0
-242 -244 0
-243 -244 0
242 243 244 0
c gate 245 -72 -168 0
-72 -245 0
-168 -245 0
72 168 245 0
c gate 246 -73 -169 0
-73 -246 0
-169 -246 0
73 169 246 0
c gate 247 -245 -246 0
-245 -247 0
-246 -247 0
245 246 247 0
c gate 248 72 168 0
72 -248 0
168 -248 0
-72 -168 248 0
c gate 249 71 167 0
71 -249 0
167 -249 0
-71 -167 249 0
c gate 250 -248 -249 0
-248 -250 0
-249 -250 0
248 249 250 0
c gate 251 -71 -167 0
-71 -251 0
-167 -251 0
71 167 251 0
c gate 252 -70 -166 0
-70 -252 0
-166 -252 0
70 166 252 0
c gate 253 -251 -252 0
-251 -253 0
-252 -253 0
251 252 253 0
c gate 254 70 166 0
70 -254 0
166 -254 0
-70 -166 254 0
c gate 255 69 165 0
69 -255 0
165 -255 0
-69 -165 255 0
c gate 256 -254 -255 0
-254 -256 0
-255 -256 0
254 255 256 0
c gate 257 -69 -165 0
-69 -257 0
-165 -257 0
69 165 257 0
c gate 258 66 162 0
66 -258 0
162 -258 0
-66 -162 258 0
c gate 259 65 161 0
65 -259 0
161 -259 0
-65 -161 259 0
c gate 260 -258 -259 0
-258 -260 0
-259 -260 0
258 259 260 0
c gate 261 -67 -163 0
-67 -261 0
-163 -261 0
67 163 261 0
c gate 262 -66 -162 0
-66 -262 0
-162 -262 0
66 162 262 0
c gate 263 -68 -164 0
-68 -263 0
-164 -263 0
68 164 263 0
c gate 264 -262 -263 0
-262 -264 0
-263 -264 0
262 263 264 0
c gate 265 -261 264 0
-261 -265 0
264 -265 0
261 -264 265 0
c gate 266 -260 265 0
-260 -266 0
265 -266 0
260 -265 266 0
c gate 267 68 164 0
68 -267 0
164 -267 0
-68 -164 267 0
c gate 268 67 163 0
67 -268 0
163 -268 0
-67 -163 268 0
c gate 269 -263 268 0
-263 -269 0
268 -269 0
263 -268 269 0
c gate 270 -267 -269 0
-267 -270 0
-269 -270 0
267 269 270 0
c gate 271 -266 270 0
-266 -271 0
270 -271 0
266 -270 271 0
c gate 272 -257 -271 0
-257 -272 0
-271 -272 0
257 271 272 0
c gate 273 256 -272 0
256 -273 0
-272 -273 0
-256 272 273 0
c gate 274 253 -273 0
253 -274 0
-273 -274 0
-253 273 274 0
c gate 275 250 -274 0
250 -275 0
-274 -275 0
-250 274 275 0
c gate 276 247 -275 0
247 -276 0
-275 -276 0
-247 275 276 0
c gate 277 244 -276 0
244 -277 0
-276 -277 0
-244 276 277 0
c gate 278 -75 -171 0
-75 -278 0
-171 -278 0
75 171 278 0
c gate 279 -74 -170 0
-74 -279 0
-170 -279 0
74 170 279 0
c gate 280 -76 -172 0
-76 -280 0
-172 -280 0
76 172 280 0
c gate 281 -279 -280 0
-279 -281 0
-280 -281 0
279 280 281 0
c gate 282 -278 281 0
-278 -282 0
281 -282 0
278 -281 282 0
c gate 283 -277 282 0
-277 -283 0
282 -283 0
277 -282 283 0
c gate 284 76 172 0
76 -284 0
172 -284 0
-76 -172 284 0
c gate 285 75 171 0
75 -285 0
171 -285 0
-75 -171 285 0
c gate 286 -280 285 0
-280 -286 0
285 -286 0
280 -285 286 0
c gate 287 -284 -286 0
-284 -287 0
-286 -287 0
284 286 287 0
c gate 288 -283 287 0
-283 -288 0
287 -288 0
283 -287 288 0
c gate 289 78 174 0
78 -289 0
174 -289 0
-78 -174 289 0
c gate 290 77 173 0
77 -290 0
173 -290 0
-77 -173 290 0
c gate 291 -289 -290 0
-289 -291 0
-290 -291 0
289 290 291 0
c gate 292 -77 -173 0
-77 -292 0
-173 -292 0
77 173 292 0
c gate 293 -80 -176 0
-80 -293 0
-176 -293 0
80 176 293 0
c gate 294 -292 -293 0
-292 -294 0
-293 -294 0
292 293 294 0
c gate 295 291 294 0
291 -295 0
294 -295 0
-291 -294 295 0
c gate 296 -79 -175 0
-79 -296 0
-175 -296 0
79 175 296 0
c gate 297 -78 -174 0
-78 -297 0
-174 -297 0
78 174 297 0
c gate 298 -296 -297 0
-296 -298 0
-297 -298 0
296 297 298 0
c gate 299 80 176 0
80 -299 0
176 -299 0
-80 -176 299 0
c gate 300 79 175 0
79 -300 0
175 -300 0
-79 -175 300 0
c gate 301 -299 -300 0
-299 -301 0
-300 -301 0
299 300 301 0
c gate 302 298 301 0
298 -302 0
301 -302 0
-298 -301 302 0
c gate 303 295 302 0
295 -303 0
302 -303 0
-295 -302 303 0
c gate 304 -288 303 0
-288 -304 0
303 -304 0
288 -303 304 0
c gate 305 -291 298 0
-291 -305 0
298 -305 0
291 -298 305 0
c gate 306 301 -305 0
301 -306 0
-305 -306 0
-301 305 306 0
c gate 307 -293 -306 0
-293 -307 0
-306 -307 0
293 306 307 0
c gate 308 -304 -307 0
-304 -308 0
-307 -308 0
304 307 308 0
c gate 309 54 150 0
54 -309 0
150 -309 0
-54 -150 309 0
c gate 310 53 149 0
53 -310 0
149 -310 0
-53 -149 310 0
c gate 311 -309 -310 0
-309 -311 0
-310 -311 0
309 310 311 0
c gate 312 -56 -152 0
-56 -312 0
-152 -312 0
56 152 312 0
c gate 313 56 152 0
56 -313 0
152 -313 0
-56 -152 313 0
c gate 314 -312 -313 0
-312 -314 0
-313 -314 0
312 313 314 0
c gate 315 -54 -150 0
-54 -315 0
-150 -315 0
54 150 315 0
c gate 316 55 151 0
55 -316 0
151 -316 0
-55 -151 316 0
c gate 317 -55 -151 0
-55 -317 0
-151 -317 0
55 151 317 0
c gate 318 -316 -317 0
-316 -318 0
-317 -318 0
316 317 318 0
c gate 319 -315 318 0
-315 -319 0
318 -319 0
315 -318 319 0
c gate 320 314 319 0
314 -320 0
319 -320 0
-314 -319 320 0
c gate 321 -311 320 0
-311 -321 0
320 -321 0
311 -320 321 0
c gate 322 -312 316 0
-312 -322 0
316 -322 0
312 -316 322 0
c gate 323 -313 -322 0
-313 -323 0
-322 -323 0
313 322 323 0
c gate 324 -321 323 0
-321 -324 0
323 -324 0
321 -323 324 0
c gate 325 60 156 0
60 -325 0
156 -325 0
-60 -156 325 0
c gate 326 -60 -156 0
-60 -326 0
-156 -326 0
60 156 326 0
c gate 327 59 155 0
59 -327 0
155 -327 0
-59 -155 327 0
c gate 328 -326 327 0
-326 -328 0
327 -328 0
326 -327 328 0
c gate 329 -325 -328 0
-325 -329 0
-328 -329 0
325 328 329 0
c gate 330 -58 -154 0
-58 -330 0
-154 -330 0
58 154 330 0
c gate 331 -59 -155 0
-59 -331 0
-155 -331 0
59 155 331 0
c gate 332 -326 -331 0
-326 -332 0
-331 -332 0
326 331 332 0
c gate 333 -330 332 0
-330 -333 0
332 -333 0
330 -332 333 0
c gate 334 329 333 0
329 -334 0
333 -334 0
-329 -333 334 0
c gate 335 58 154 0
58 -335 0
154 -335 0
-58 -154 335 0
c gate 336 57 153 0
57 -336 0
153 -336 0
-57 -153 336 0
c gate 337 -335 -336 0
-335 -337 0
-336 -337 0
335 336 337 0
c gate 338 -57 -153 0
-57 -338 0
-153 -338 0
57 153 338 0
c gate 339 337 -338 0
337 -339 0
-338 -339 0
-337 338 339 0
c gate 340 334 339 0
334 -340 0
339 -340 0
-334 -339 340 0
c gate 341 -62 -158 0
-62 -341 0
-158 -341 0
62 158 341 0
c gate 342 -63 -159 0
-63 -342 0
-159 -342 0
63 159 342 0
c gate 343 -341 -342 0
-341 -343 0
-342 -343 0
341 342 343 0
c gate 344 63 159 0
63 -344 0
159 -344 0
-63 -159 344 0
c gate 345 64 160 0
64 -345 0
160 -345 0
-64 -160 345 0
c gate 346 -344 -345 0
-344 -346 0
-345 -346 0
344 345 346 0
c gate 347 -64 -160 0
-64 -347 0
-160 -347 0
64 160 347 0
c gate 348 346 -347 0
346 -348 0
-347 -348 0
-346 347 348 0
c gate 349 343 348 0
343 -349 0
348 -349 0
-343 -348 349 0
c gate 350 61 157 0
61 -350 0
157 -350 0
-61 -157 350 0
c gate 351 62 158 0
62 -351 0
158 -351 0
-62 -158 351 0
c gate 352 -350 -351 0
-350 -352 0
-351 -352 0
350 351 352 0
c gate 353 -61 -157 0
-61 -353 0
-157 -353 0
61 157 353 0
c gate 354 352 -353 0
352 -354 0
-353 -354 0
-352 353 354 0
c gate 355 349 354 0
349 -355 0
354 -355 0
-349 -354 355 0
c gate 356 340 355 0
340 -356 0
355 -356 0
-340 -355 356 0
c gate 357 -324 356 0
-324 -357 0
356 -357 0
324 -356 357 0
c gate 358 334 -337 0
334 -358 0
-337 -358 0
-334 337 358 0
c gate 359 329 -358 0
329 -359 0
-358 -359 0
-329 358 359 0
c gate 360 355 -359 0
355 -360 0
-359 -360 0
-355 359 360 0
c gate 361 343 -352 0
343 -361 0
-352 -361 0
-343 352 361 0
c gate 362 346 -361 0
346 -362 0
-361 -362 0
-346 361 362 0
c gate 363 -347 -362 0
-347 -363 0
-362 -363 0
347 362 363 0
c gate 364 -360 -363 0
-360 -364 0
-363 -364 0
360 363 364 0
c gate 365 -357 364 0
-357 -365 0
364 -365 0
357 -364 365 0
c gate 366 265 270 0
265 -366 0
270 -366 0
-265 -270 366 0
c gate 367 282 287 0
282 -367 0
287 -367 0
-282 -287 367 0
c gate 368 366 367 0
366 -368 0
367 -368 0
-366 -367 368 0
c gate 369 253 256 0
253 -369 0
256 -369 0
-253 -256 369 0
c gate 370 260 369 0
260 -370 0
369 -370 0
-260 -369 370 0
c gate 371 -65 -161 0
-65 -371 0
-161 -371 0
65 161 371 0
c gate 372 -257 -371 0
-257 -372 0
-371 -372 0
257 371 372 0
c gate 373 244 372 0
244 -373 0
372 -373 0
-244 -372 373 0
c gate 374 247 250 0
247 -374 0
250 -374 0
-247 -250 374 0
c gate 375 373 374 0
373 -375 0
374 -375 0
-373 -374 375 0
c gate 376 370 375 0
370 -376 0
375 -376 0
-370 -375 376 0
c gate 377 303 376 0
303 -377 0
376 -377 0
-303 -376 377 0
c gate 378 368 377 0
368 -378 0
377 -378 0
-368 -377 378 0
c gate 379 -365 378 0
-365 -379 0
378 -379 0
365 -378 379 0
c gate 380 308 -379 0
308 -380 0
-379 -380 0
-308 379 380 0
c gate 381 215 218 0
215 -381 0
218 -381 0
-215 -218 381 0
c gate 382 221 225 0
221 -382 0
225 -382 0
-221 -225 382 0
c gate 383 381 382 0
381 -383 0
382 -383 0
-381 -382 383 0
c gate 384 -81 -177 0
-81 -384 0
-177 -384 0
81 177 384 0
c gate 385 -212 -222 0
-212 -385 0
-222 -385 0
212 222 385 0
c gate 386 -384 385 0
-384 -386 0
385 -386 0
384 -385 386 0
c gate 387 230 386 0
230 -387 0
386 -387 0
-230 -386 387 0
c gate 388 235 387 0
235 -388 0
387 -388 0
-235 -387 388 0
c gate 389 383 388 0
383 -389 0
388 -389 0
-383 -388 389 0
c gate 390 -380 389 0
-380 -390 0
389 -390 0
380 -389 390 0
c gate 391 -241 -390 0
-241 -391 0
-390 -391 0
241 390 391 0
c gate 392 -89 -185 0
-89 -392 0
-185 -392 0
89 185 392 0
c gate 393 204 -392 0
204 -393 0
-392 -393 0
-204 392 393 0
c gate 394 209 393 0
209 -394 0
393 -394 0
-209 -393 394 0
c gate 395 -391 394 0
-391 -395 0
394 -395 0
391 -394 395 0
c gate 396 211 -395 0
211 -396 0
-395 -396 0
-211 395 396 0
c gate 397 -196 -396 0
-196 -397 0
-396 -397 0
196 396 397 0
c gate 398 195 -397 0
195 -398 0
-397 -398 0
-195 397 398 0
c gate 399 52 148 0
52 -399 0
148 -399 0
-52 -148 399 0
c gate 400 -52 -148 0
-52 -400 0
-148 -400 0
52 148 400 0
c gate 401 51 147 0
51 -401 0
147 -401 0
-51 -147 401 0
c gate 402 -400 401 0
-400 -402 0
401 -402 0
400 -401 402 0
c gate 403 -399 -402 0
-399 -403 0
-402 -403 0
399 402 403 0
c gate 404 50 146 0
50 -404 0
146 -404 0
-50 -146 404 0
c gate 405 49 145 0
49 -405 0
145 -405 0
-49 -145 405 0
c gate 406 -404 -405 0
-404 -406 0
-405 -406 0
404 405 406 0
c gate 407 -50 -146 0
-50 -407 0
-146 -407 0
50 146 407 0
c gate 408 -51 -147 0
-51 -408 0
-147 -408 0
51 147 408 0
c gate 409 -400 -408 0
-400 -409 0
-408 -409 0
400 408 409 0
c gate 410 -407 409 0
-407 -410 0
409 -410 0
407 -409 410 0
c gate 411 403 410 0
403 -411 0
410 -411 0
-403 -410 411 0
c gate 412 -406 411 0
-406 -412 0
411 -412 0
406 -411 412 0
c gate 413 403 -412 0
403 -413 0
-412 -413 0
-403 412 413 0
c gate 414 -53 -149 0
-53 -414 0
-149 -414 0
53 149 414 0
c gate 415 311 -414 0
311 -415 0
-414 -415 0
-311 414 415 0
c gate 416 320 415 0
320 -416 0
415 -416 0
-320 -415 416 0
c gate 417 -413 416 0
-413 -417 0
416 -417 0
413 -416 417 0
c gate 418 324 -417 0
324 -418 0
-417 -418 0
-324 417 418 0
c gate 419 -49 -145 0
-49 -419 0
-145 -419 0
49 145 419 0
c gate 420 406 -419 0
406 -420 0
-419 -420 0
-406 419 420 0
c gate 421 411 420 0
411 -421 0
420 -421 0
-411 -420 421 0
c gate 422 416 421 0
416 -422 0
421 -422 0
-416 -421 422 0
c gate 423 40 136 0
40 -423 0
136 -423 0
-40 -136 423 0
c gate 424 -40 -136 0
-40 -424 0
-136 -424 0
40 136 424 0
c gate 425 39 135 0
39 -425 0
135 -425 0
-39 -135 425 0
c gate 426 -424 425 0
-424 -426 0
425 -426 0
424 -425 426 0
c gate 427 -423 -426 0
-423 -427 0
-426 -427 0
423 426 427 0
c gate 428 38 134 0
38 -428 0
134 -428 0
-38 -134 428 0
c gate 429 37 133 0
37 -429 0
133 -429 0
-37 -133 429 0
c gate 430 -428 -429 0
-428 -430 0
-429 -430 0
428 429 430 0
c gate 431 -38 -134 0
-38 -431 0
-134 -431 0
38 134 431 0
c gate 432 -39 -135 0
-39 -432 0
-135 -432 0
39 135 432 0
c gate 433 -424 -432 0
-424 -433 0
-432 -433 0
424 432 433 0
c gate 434 -431 433 0
-431 -434 0
433 -434 0
431 -433 434 0
c gate 435 427 434 0
427 -435 0
434 -435 0
-427 -434 435 0
c gate 436 -430 435 0
-430 -436 0
435 -436 0
430 -435 436 0
c gate 437 427 -436 0
427 -437 0
-436 -437 0
-427 436 437 0
c gate 438 -37 -133 0
-37 -438 0
-133 -438 0
37 133 438 0
c gate 439 430 -438 0
430 -439 0
-438 -439 0
-430 438 439 0
c gate 440 435 439 0
435 -440 0
439 -440 0
-435 -439 440 0
c gate 441 36 132 0
36 -441 0
132 -441 0
-36 -132 441 0
c gate 442 -36 -132 0
-36 -442 0
-132 -442 0
36 132 442 0
c gate 443 35 131 0
35 -443 0
131 -443 0
-35 -131 443 0
c gate 444 -442 443 0
-442 -444 0
443 -444 0
442 -443 444 0
c gate 445 -441 -444 0
-441 -445 0
-444 -445 0
441 444 445 0
c gate 446 -35 -131 0
-35 -446 0
-131 -446 0
35 131 446 0
c gate 447 -442 -446 0
-442 -447 0
-446 -447 0
442 446 447 0
c gate 448 445 447 0
445 -448 0
447 -448 0
-445 -447 448 0
c gate 449 33 129 0
33 -449 0
129 -449 0
-33 -129 449 0
c gate 450 34 130 0
34 -450 0
130 -450 0
-34 -130 450 0
c gate 451 -449 -450 0
-449 -451 0
-450 -451 0
449 450 451 0
c gate 452 -34 -130 0
-34 -452 0
-130 -452 0
34 130 452 0
c gate 453 -451 -452 0
-451 -453 0
-452 -453 0
451 452 453 0
c gate 454 448 453 0
448 -454 0
453 -454 0
-448 -453 454 0
c gate 455 445 -454 0
445 -455 0
-454 -455 0
-445 454 455 0
c gate 456 440 -455 0
440 -456 0
-455 -456 0
-440 455 456 0
c gate 457 437 -456 0
437 -457 0
-456 -457 0
-437 456 457 0
c gate 458 -33 -129 0
-33 -458 0
-129 -458 0
33 129 458 0
c gate 459 -452 -458 0
-452 -459 0
-458 -459 0
452 458 459 0
c gate 460 451 459 0
451 -460 0
459 -460 0
-451 -459 460 0
c gate 461 448 460 0
448 -461 0
460 -461 0
-448 -460 461 0
c gate 462 440 461 0
440 -462 0
461 -462 0
-440 -461 462 0
c gate 463 2 98 0
2 -463 0
98 -463 0
-2 -98 463 0
c gate 464 1 97 0
1 -464 0
97 -464 0
-1 -97 464 0
c gate 465 -463 -464 0
-463 -465 0
-464 -465 0
463 464 465 0
c gate 466 -3 -99 0
-3 -466 0
-99 -466 0
3 99 466 0
c gate 467 -2 -98 0
-2 -467 0
-98 -467 0
2 98 467 0
c gate 468 -466 -467 0
-466 -468 0
-467 -468 0
466 467 468 0
c gate 469 -465 468 0
-465 -469 0
468 -469 0
465 -468 469 0
c gate 470 4 100 0
4 -470 0
100 -470 0
-4 -100 470 0
c gate 471 3 99 0
3 -471 0
99 -471 0
-3 -99 471 0
c gate 472 -470 -471 0
-470 -472 0
-471 -472 0
470 471 472 0
c gate 473 -469 472 0
-469 -473 0
472 -473 0
469 -472 473 0
c gate 474 -4 -100 0
-4 -474 0
-100 -474 0
4 100 474 0
c gate 475 -5 -101 0
-5 -475 0
-101 -475 0
5 101 475 0
c gate 476 -474 -475 0
-474 -476 0
-475 -476 0
474 475 476 0
c gate 477 -473 476 0
-473 -477 0
476 -477 0
473 -476 477 0
c gate 478 6 102 0
6 -478 0
102 -478 0
-6 -102 478 0
c gate 479 5 101 0
5 -479 0
101 -479 0
-5 -101 479 0
c gate 480 -478 -479 0
-478 -480 0
-479 -480 0
478 479 480 0
c gate 481 -477 480 0
-477 -481 0
480 -481 0
477 -480 481 0
c gate 482 -7 -103 0
-7 -482 0
-103 -482 0
7 103 482 0
c gate 483 -6 -102 0
-6 -483 0
-102 -483 0
6 102 483 0
c gate 484 -482 -483 0
-482 -484 0
-483 -484 0
482 483 484 0
c gate 485 -481 484 0
-481 -485 0
484 -485 0
481 -484 485 0
c gate 486 8 104 0
8 -486 0
104 -486 0
-8 -104 486 0
c gate 487 7 103 0
7 -487 0
103 -487 0
-7 -103 487 0
c gate 488 -486 -487 0
-486 -488 0
-487 -488 0
486 487 488 0
c gate 489 -485 488 0
-485 -489 0
488 -489 0
485 -488 489 0
c gate 490 -9 -105 0
-9 -490 0
-105 -490 0
9 105 490 0
c gate 491 -8 -104 0
-8 -491 0
-104 -491 0
8 104 491 0
c gate 492 -490 -491 0
-490 -492 0
-491 -492 0
490 491 492 0
c gate 493 -489 492 0
-489 -493 0
492 -493 0
489 -492 493 0
c gate 494 10 106 0
10 -494 0
106 -494 0
-10 -106 494 0
c gate 495 9 105 0
9 -495 0
105 -495 0
-9 -105 495 0
c gate 496 -494 -495 0
-494 -496 0
-495 -496 0
494 495 496 0
c gate 497 -493 496 0
-493 -497 0
496 -497 0
493 -496 497 0
c gate 498 -10 -106 0
-10 -498 0
-106 -498 0
10 106 498 0
c gate 499 -12 -108 0
-12 -499 0
-108 -499 0
12 108 499 0
c gate 500 -11 -107 0
-11 -500 0
-107 -500 0
11 107 500 0
c gate 501 -499 -500 0
-499 -501 0
-500 -501 0
499 500 501 0
c gate 502 -498 501 0
-498 -502 0
501 -502 0
498 -501 502 0
c gate 503 -497 502 0
-497 -503 0
502 -503 0
497 -502 503 0
c gate 504 12 108 0
12 -504 0
108 -504 0
-12 -108 504 0
c gate 505 11 107 0
11 -505 0
107 -505 0
-11 -107 505 0
c gate 506 -499 505 0
-499 -506 0
505 -506 0
499 -505 506 0
c gate 507 -504 -506 0
-504 -507 0
-506 -507 0
504 506 507 0
c gate 508 -503 507 0
-503 -508 0
507 -508 0
503 -507 508 0
c gate 509 -14 -110 0
-14 -509 0
-110 -509 0
14 110 509 0
c gate 510 -15 -111 0
-15 -510 0
-111 -510 0
15 111 510 0
c gate 511 -509 -510 0
-509 -511 0
-510 -511 0
509 510 511 0
c gate 512 14 110 0
14 -512 0
110 -512 0
-14 -110 512 0
c gate 513 13 109 0
13 -513 0
109 -513 0
-13 -109 513 0
c gate 514 -512 -513 0
-512 -514 0
-513 -514 0
512 513 514 0
c gate 515 -13 -109 0
-13 -515 0
-109 -515 0
13 109 515 0
c gate 516 514 -515 0
514 -516 0
-515 -516 0
-514 515 516 0
c gate 517 511 516 0
511 -517 0
516 -517 0
-511 -516 517 0
c gate 518 -508 517 0
-508 -518 0
517 -518 0
508 -517 518 0
c gate 519 511 -514 0
511 -519 0
-514 -519 0
-511 514 519 0
c gate 520 15 111 0
15 -520 0
111 -520 0
-15 -111 520 0
c gate 521 16 112 0
16 -521 0
112 -521 0
-16 -112 521 0
c gate 522 -520 -521 0
-520 -522 0
-521 -522 0
520 521 522 0
c gate 523 -519 522 0
-519 -523 0
522 -523 0
519 -522 523 0
c gate 524 -518 523 0
-518 -524 0
523 -524 0
518 -523 524 0
c gate 525 -20 -116 0
-20 -525 0
-116 -525 0
20 116 525 0
c gate 526 19 -525 0
19 -526 0
-525 -526 0
-19 525 526 0
c gate 527 115 -525 0
115 -527 0
-525 -527 0
-115 525 527 0
c gate 528 -526 -527 0
-526 -528 0
-527 -528 0
526 527 528 0
c gate 529 28 124 0
28 -529 0
124 -529 0
-28 -124 529 0
c gate 530 -28 -124 0
-28 -530 0
-124 -530 0
28 124 530 0
c gate 531 27 123 0
27 -531 0
123 -531 0
-27 -123 531 0
c gate 532 -530 531 0
-530 -532 0
531 -532 0
530 -531 532 0
c gate 533 -529 -532 0
-529 -533 0
-532 -533 0
529 532 533 0
c gate 534 -27 -123 0
-27 -534 0
-123 -534 0
27 123 534 0
c gate 535 -26 -122 0
-26 -535 0
-122 -535 0
26 122 535 0
c gate 536 -530 -535 0
-530 -536 0
-535 -536 0
530 535 536 0
c gate 537 -534 536 0
-534 -537 0
536 -537 0
534 -536 537 0
c gate 538 533 537 0
533 -538 0
537 -538 0
-533 -537 538 0
c gate 539 -528 538 0
-528 -539 0
538 -539 0
528 -538 539 0
c gate 540 -23 -119 0
-23 -540 0
-119 -540 0
23 119 540 0
c gate 541 -22 -118 0
-22 -541 0
-118 -541 0
22 118 541 0
c gate 542 -540 -541 0
-540 -542 0
-541 -542 0
540 541 542 0
c gate 543 24 120 0
24 -543 0
120 -543 0
-24 -120 543 0
c gate 544 23 119 0
23 -544 0
119 -544 0
-23 -119 544 0
c gate 545 -543 -544 0
-543 -545 0
-544 -545 0
543 544 545 0
c gate 546 542 545 0
542 -546 0
545 -546 0
-542 -545 546 0
c gate 547 22 118 0
22 -547 0
118 -547 0
-22 -118 547 0
c gate 548 21 117 0
21 -548 0
117 -548 0
-21 -117 548 0
c gate 549 -547 -548 0
-547 -549 0
-548 -549 0
547 548 549 0
c gate 550 -25 -121 0
-25 -550 0
-121 -550 0
25 121 550 0
c gate 551 -24 -120 0
-24 -551 0
-120 -551 0
24 120 551 0
c gate 552 -550 -551 0
-550 -552 0
-551 -552 0
550 551 552 0
c gate 553 549 552 0
549 -553 0
552 -553 0
-549 -552 553 0
c gate 554 546 553 0
546 -554 0
553 -554 0
-546 -553 554 0
c gate 555 -16 -112 0
-16 -555 0
-112 -555 0
16 112 555 0
c gate 556 -18 -114 0
-18 -556 0
-114 -556 0
18 114 556 0
c gate 557 -555 -556 0
-555 -557 0
-556 -557 0
555 556 557 0
c gate 558 -17 -113 0
-17 -558 0
-113 -558 0
17 113 558 0
c gate 559 -21 -117 0
-21 -559 0
-117 -559 0
21 117 559 0
c gate 560 -558 -559 0
-558 -560 0
-559 -560 0
558 559 560 0
c gate 561 557 560 0
557 -561 0
560 -561 0
-557 -560 561 0
c gate 562 17 113 0
17 -562 0
113 -562 0
-17 -113 562 0
c gate 563 18 114 0
18 -563 0
114 -563 0
-18 -114 563 0
c gate 564 -562 -563 0
-562 -564 0
-563 -564 0
562 563 564 0
c gate 565 25 121 0
25 -565 0
121 -565 0
-25 -121 565 0
c gate 566 26 122 0
26 -566 0
122 -566 0
-26 -122 566 0
c gate 567 -565 -566 0
-565 -567 0
-566 -567 0
565 566 567 0
c gate 568 564 567 0
564 -568 0
567 -568 0
-564 -567 568 0
c gate 569 561 568 0
561 -569 0
568 -569 0
-561 -568 569 0
c gate 570 554 569 0
554 -570 0
569 -570 0
-554 -569 570 0
c gate 571 30 126 0
30 -571 0
126 -571 0
-30 -126 571 0
c gate 572 29 125 0
29 -572 0
125 -572 0
-29 -125 572 0
c gate 573 -571 -572 0
-571 -573 0
-572 -573 0
571 572 573 0
c gate 574 -29 -125 0
-29 -574 0
-125 -574 0
29 125 574 0
c gate 575 -32 -128 0
-32 -575 0
-128 -575 0
32 128 575 0
c gate 576 -574 -575 0
-574 -576 0
-575 -576 0
574 575 576 0
c gate 577 573 576 0
573 -577 0
576 -577 0
-573 -576 577 0
c gate 578 -31 -127 0
-31 -578 0
-127 -578 0
31 127 578 0
c gate 579 -30 -126 0
-30 -579 0
-126 -579 0
30 126 579 0
c gate 580 -578 -579 0
-578 -580 0
-579 -580 0
578 579 580 0
c gate 581 32 128 0
32 -581 0
128 -581 0
-32 -128 581 0
c gate 582 31 127 0
31 -582 0
127 -582 0
-31 -127 582 0
c gate 583 -581 -582 0
-581 -583 0
-582 -583 0
581 582 583 0
c gate 584 580 583 0
580 -584 0
583 -584 0
-580 -583 584 0
c gate 585 577 584 0
577 -585 0
584 -585 0
-577 -584 585 0
c gate 586 20 116 0
20 -586 0
116 -586 0
-20 -116 586 0
c gate 587 115 526 0
115 -587 0
526 -587 0
-115 -526 587 0
c gate 588 -586 -587 0
-586 -588 0
-587 -588 0
586 587 588 0
c gate 589 585 588 0
585 -589 0
588 -589 0
-585 -588 589 0
c gate 590 570 589 0
570 -590 0
589 -590 0
-570 -589 590 0
c gate 591 539 590 0
539 -591 0
590 -591 0
-539 -590 591 0
c gate 592 -524 591 0
-524 -592 0
591 -592 0
524 -591 592 0
c gate 593 -556 -564 0
-556 -593 0
-564 -593 0
556 564 593 0
c gate 594 -528 593 0
-528 -594 0
593 -594 0
528 -593 594 0
c gate 595 588 -594 0
588 -595 0
-594 -595 0
-588 594 595 0
c gate 596 -559 -595 0
-559 -596 0
-595 -596 0
559 595 596 0
c gate 597 549 -596 0
549 -597 0
-596 -597 0
-549 596 597 0
c gate 598 542 -597 0
542 -598 0
-597 -598 0
-542 597 598 0
c gate 599 545 -598 0
545 -599 0
-598 -599 0
-545 598 599 0
c gate 600 552 -599 0
552 -600 0
-599 -600 0
-552 599 600 0
c gate 601 567 -600 0
567 -601 0
-600 -601 0
-567 600 601 0
c gate 602 537 -601 0
537 -602 0
-601 -602 0
-537 601 602 0
c gate 603 533 -602 0
533 -603 0
-602 -603 0
-533 602 603 0
c gate 604 585 -603 0
585 -604 0
-603 -604 0
-585 603 604 0
c gate 605 -573 580 0
-573 -605 0
580 -605 0
573 -580 605 0
c gate 606 583 -605 0
583 -606 0
-605 -606 0
-583 605 606 0
c gate 607 -575 -606 0
-575 -607 0
-606 -607 0
575 606 607 0
c gate 608 -604 -607 0
-604 -608 0
-607 -608 0
604 607 608 0
c gate 609 -592 608 0
-592 -609 0
608 -609 0
592 -608 609 0
c gate 610 462 -609 0
462 -610 0
-609 -610 0
-462 609 610 0
c gate 611 457 -610 0
457 -611 0
-610 -611 0
-457 610 611 0
c gate 612 48 144 0
48 -612 0
144 -612 0
-48 -144 612 0
c gate 613 -48 -144 0
-48 -613 0
-144 -613 0
48 144 613 0
c gate 614 47 143 0
47 -614 0
143 -614 0
-47 -143 614 0
c gate 615 -613 614 0
-613 -615 0
614 -615 0
613 -614 615 0
c gate 616 -612 -615 0
-612 -616 0
-615 -616 0
612 615 616 0
c gate 617 -46 -142 0
-46 -617 0
-142 -617 0
46 142 617 0
c gate 618 -47 -143 0
-47 -618 0
-143 -618 0
47 143 618 0
c gate 619 -613 -618 0
-613 -619 0
-618 -619 0
613 618 619 0
c gate 620 -617 619 0
-617 -620 0
619 -620 0
617 -619 620 0
c gate 621 616 620 0
616 -621 0
620 -621 0
-616 -620 621 0
c gate 622 -45 -141 0
-45 -622 0
-141 -622 0
45 141 622 0
c gate 623 46 142 0
46 -623 0
142 -623 0
-46 -142 623 0
c gate 624 45 141 0
45 -624 0
141 -624 0
-45 -141 624 0
c gate 625 -623 -624 0
-623 -625 0
-624 -625 0
623 624 625 0
c gate 626 -622 625 0
-622 -626 0
625 -626 0
622 -625 626 0
c gate 627 621 626 0
621 -627 0
626 -627 0
-621 -626 627 0
c gate 628 44 140 0
44 -628 0
140 -628 0
-44 -140 628 0
c gate 629 -44 -140 0
-44 -629 0
-140 -629 0
44 140 629 0
c gate 630 43 139 0
43 -630 0
139 -630 0
-43 -139 630 0
c gate 631 -629 630 0
-629 -631 0
630 -631 0
629 -630 631 0
c gate 632 -628 -631 0
-628 -632 0
-631 -632 0
628 631 632 0
c gate 633 -42 -138 0
-42 -633 0
-138 -633 0
42 138 633 0
c gate 634 -43 -139 0
-43 -634 0
-139 -634 0
43 139 634 0
c gate 635 -629 -634 0
-629 -635 0
-634 -635 0
629 634 635 0
c gate 636 -633 635 0
-633 -636 0
635 -636 0
633 -635 636 0
c gate 637 632 636 0
632 -637 0
636 -637 0
-632 -636 637 0
c gate 638 42 138 0
42 -638 0
138 -638 0
-42 -138 638 0
c gate 639 41 137 0
41 -639 0
137 -639 0
-41 -137 639 0
c gate 640 -638 -639 0
-638 -640 0
-639 -640 0
638 639 640 0
c gate 641 -41 -137 0
-41 -641 0
-137 -641 0
41 137 641 0
c gate 642 640 -641 0
640 -642 0
-641 -642 0
-640 641 642 0
c gate 643 637 642 0
637 -643 0
642 -643 0
-637 -642 643 0
c gate 644 627 643 0
627 -644 0
643 -644 0
-627 -643 644 0
c gate 645 -611 644 0
-611 -645 0
644 -645 0
611 -644 645 0
c gate 646 637 -640 0
637 -646 0
-640 -646 0
-637 640 646 0
c gate 647 632 -646 0
632 -647 0
-646 -647 0
-632 646 647 0
c gate 648 627 -647 0
627 -648 0
-647 -648 0
-627 647 648 0
c gate 649 621 -625 0
621 -649 0
-625 -649 0
-621 625 649 0
c gate 650 616 -649 0
616 -650 0
-649 -650 0
-616 649 650 0
c gate 651 -648 650 0
-648 -651 0
650 -651 0
648 -650 651 0
c gate 652 -645 651 0
-645 -652 0
651 -652 0
645 -651 652 0
c gate 653 422 -652 0
422 -653 0
-652 -653 0
-422 652 653 0
c gate 654 418 -653 0
418 -654 0
-653 -654 0
-418 653 654 0
c gate 655 356 -654 0
356 -655 0
-654 -655 0
-356 654 655 0
c gate 656 364 -655 0
364 -656 0
-655 -656 0
-364 655 656 0
c gate 657 378 -656 0
378 -657 0
-656 -657 0
-378 656 657 0
c gate 658 308 -657 0
308 -658 0
-657 -658 0
-308 657 658 0
c gate 659 389 -658 0
389 -659 0
-658 -659 0
-389 658 659 0
c gate 660 -241 -659 0
-241 -660 0
-659 -660 0
241 659 660 0
c gate 661 394 -660 0
394 -661 0
-660 -661 0
-394 660 661 0
c gate 662 211 -661 0
211 -662 0
-661 -662 0
-211 661 662 0
c gate 663 -196 -662 0
-196 -663 0
-662 -663 0
196 662 663 0
c gate 664 195 -663 0
195 -664 0
-663 -664 0
-195 663 664 0
c gate 665 -94 -190 0
-94 -665 0
-190 -665 0
94 190 665 0
c gate 666 -95 -191 0
-95 -666 0
-191 -666 0
95 191 666 0
c gate 667 -665 -666 0
-665 -667 0
-666 -667 0
665 666 667 0
c gate 668 95 191 0
95 -668 0
191 -668 0
-95 -191 668 0
c gate 669 667 -668 0
667 -669 0
-668 -669 0
-667 668 669 0
c gate 670 -664 669 0
-664 -670 0
669 -670 0
664 -669 670 0
c gate 671 -398 670 0
-398 -671 0
670 -671 0
398 -670 671 0
c gate 672 -96 -192 0
-96 -672 0
-192 -672 0
96 192 672 0
c gate 673 96 192 0
96 -673 0
192 -673 0
-96 -192 673 0
c gate 674 -672 -673 0
-672 -674 0
-673 -674 0
672 673 674 0
c gate 675 -670 674 0
-670 -675 0
674 -675 0
670 -674 675 0
c gate 676 -398 667 0
-398 -676 0
667 -676 0
398 -667 676 0
c gate 677 -674 -676 0
-674 -677 0
-676 -677 0
674 676 677 0
c gate 678 -668 -677 0
-668 -678 0
-677 -678 0
668 677 678 0
c gate 679 -675 678 0
-675 -679 0
678 -679 0
675 -678 679 0
c gate 680 -671 679 0
-671 -680 0
679 -680 0
671 -679 680 0
c gate 681 -196 674 0
-196 -681 0
674 -681 0
196 -674 681 0
c gate 682 195 681 0
195 -682 0
681 -682 0
-195 -681 682 0
c gate 683 669 682 0
669 -683 0
682 -683 0
-669 -682 683 0
c gate 684 394 683 0
394 -684 0
683 -684 0
-394 -683 684 0
c gate 685 -241 684 0
-241 -685 0
684 -685 0
241 -684 685 0
c gate 686 659 685 0
659 -686 0
685 -686 0
-659 -685 686 0
c gate 687 -680 686 0
-680 -687 0
686 -687 0
680 -686 687 0
c PO
687 0
